StudentsNr = 10;
InstructorsNr = 21;
DaysNr = 1;
SlotsPerDay = 20;
AvailabilitySlotsLenght = 20;
RoomNr = 2;
ProgrammNr = 2;
DegreeNr = 3;
RolesNr = 0;
CoursesNr = 8;
InstructorsProgramm = [{1}, {1}, {1}, {2}, {1}, {1, 2}, {1, 2}, {1}, {1, 2}, {1}, {1, 2}, {2}, {2}, {1, 2}, {1, 2}, {2}, {1}, {1}, {1}, {2}, {1, 2}];
InstructorRolesPerProgramm = array2d(1..ProgrammNr,{},[]);
InstructorsAvailability = [|1, |1, |1, |1, |0, |0, |1, |0, |1, |1, |0, |1, |0, |0, |0, |1, |1, |0, |0, |1, |1|];
StudentsProgramm = [2, 2, 1, 2, 1, 2, 2, 2, 1, 2];
StudentsDegree = [1, 3, 2, 1, 3, 3, 2, 1, 2, 1];
StudentsSupervisorId = [15, 6, 9, 21, 10, 13, 13, 11, 10, 15];
StudentsCourseIds = [{3, 7}, {1, 2, 7}, {1, 2, 3, 4, 5, 6, 7, 8}, {2, 6}, {1, 2, 8}, {4, 5, 7}, {1, 2, 3, 4, 5, 6, 7, 8}, {1, 2}, {1, 2, 3, 4, 5, 6, 7, 8}, {4, 5}];
StudentsAvailability = [|0, |1, |0, |0, |0, |1, |0, |0, |1, |1|];
TheoryticalMinCard = [2, 3, 8, 2, 3, 3, 8, 3, 8, 2];
CoursesInstructorIds = [{4, 9, 12, 13, 15, 18, 20, 21}, {4, 6, 7, 9, 10, 13, 18}, {9, 11, 13, 14, 16}, {1, 2, 4, 7, 10, 11, 13, 17, 19, 20}, {3, 4, 5, 12, 14, 15, 16, 18, 19, 20, 21}, {7, 16, 17, 18, 21}, {1, 2, 5, 6, 10, 11, 12, 15, 17, 20}, {1, 2, 3, 4, 5, 7, 10, 11, 13, 14, 15, 16}];
RolesDemands = [];
RolesContinuity = [];
ExamLen = [2, 2, 1, 2, 2, 2, 1, 2, 1, 2];
LunchTsMinLen = 1;
LunchStarts = [6..14];
SupervisorAvailable = 5;
OptimalLunchLenght = [2, 1];
OptimalStartTs = [2, 0];
OptimalFinishTs = [1, 20];
MinimizeRooms = 0;
RolesSoftContinuity = array2d(1..2,{},[]);
SameDegreeInRoom = 0;
Mergeability = 0;
